60
288
9
62
149
347
198
72
225
101
71
451
1
56
7
297
177
346
294
473
238
181
94
393
246
166
182
491
7
126
260
67
391
60
254
3
352
100
255
265
481
70
477
437
395
470
128
318
422
444
292
359
409
481
374
114
91
373
190
302
45
144
171
18
135
241
491
174
17
193
334
138
384
241
469
401
469
489
262
467
150
498
498
329
105
131
416
166
247
313
440
244
489
457
273
187
195
248
373
67
